(set-logic QF_NRA)
(declare-fun skoY () Real)
(declare-fun skoX () Real)
(declare-fun skoZ () Real)
(assert (and (<= (+ (* 5 skoY) (* 5 skoX) (* 5 skoZ)) (- 32)) (and (not (<= (+ (* (- 1) skoY) (* (- 1) skoX) (* (- 1) skoZ)) (- 1))) (and (not (<= skoZ 0)) (and (not (<= skoY 0)) (not (<= skoX 0)))))))
(set-info :status unsat)
(check-sat)
